
Gurobi 8.1.1 (win64, Python) logging started 12/19/19 17:40:28

Academic license - for non-commercial use only

Gurobi 8.1.1 (win64, Python) logging started 12/19/19 17:47:52

Academic license - for non-commercial use only
